147
10000
2473
281
4615
1585
2092
6102
2014
2293
3582
1963
3025
3120
5555
2266
459
2511
2947
562
3956
5005
1189
3946
1327
697
331
6920
1261
3060
414
6844
2443
3411
1722
4572
135
78
447
3484
7143
938
6
5836
5315
309
6635
3270
2773
551
539
4445
3751
2973
3056
4938
4456
2884
3390
3780
7113
812
3365
7173
145
5836
3348
5541
3700
2713
1979
1898
2503
6374
5286
2404
7138
5909
4379
3080
1980
2874
719
4087
1
6627
1439
2739
5416
2060
1305
747
7489
100
54
2827
7057
4315
237
6184
6535
4006
1974
6892
6310
3675
7287
398
242
7372
467
3387
4381
2859
1124
2833
899
3481
6589
3087
6816
4231
2887
3429
1326
1008
4603
2628
2266
2877
303
3156
1050
2061
2973
3465
1458
3253
3155
1092
2121
570
2999
318
3898
842
1229
1399
4161
